18,3	0,0	6,4	14,9	0,0	0,0	0,0	0,0	0,0	10,5
16,8	7,7	0,0	19,9	12,4	0,0	0,0	13,1	0,0	0,0
0,0	0,0	16,3	0,0	11,6	19,9	0,0	0,0	13,3	0,0
13,8	0,0	7,4	0,0	0,0	0,0	12,8	0,0	0,0	0,0
0,0	12,3	0,0	15,1	6,7	0,0	0,0	18,7	0,0	0,0
0,0	5,3	15,1	0,0	5,3	8,8	0,0	0,0	6,6	0,0
0,0	12,5	0,0	10,7	0,0	0,0	17,3	0,0	0,0	10,2
19,4	0,0	15,1	0,0	0,0	0,0	0,0	0,0	0,0	17,5
0,0	5,4	0,0	14,4	11,6	0,0	0,0	8,9	0,0	0,0
0,0	0,0	17,5	0,0	0,0	19,1	7,0	0,0	0,0	16,2
									
3,1	2,7	3,0	3,6	3,6	3,5	4,2	3,9	4,2	3,8
